NAME          ClpDefau  FREE
ROWS
 N  OBJROW
 L  ZMUNI1_PCT
 L  ZMUNI2_PCT
 L  ZMUNI3_PCT
 L  ZMUNI4_PCT
 L  ZMUNI5_PCT
 L  ZMUNI6_PCT
 L  ZMUNI7_PCT
 L  ZMUNI8_PCT
 L  ZMUNI9_PCT
COLUMNS
    QMUNI1 OBJROW 1.          
    QMUNI1 ZMUNI1_PCT 30524.4445  
    QMUNI1 ZMUNI2_PCT 1601.4099   
    QMUNI1 ZMUNI3_PCT 4123.497    
    QMUNI1 ZMUNI4_PCT 2726.4595   
    QMUNI1 ZMUNI5_PCT 311.2793    
    QMUNI1 ZMUNI6_PCT 448.7991    
    QMUNI1 ZMUNI7_PCT 1405.1437   
    QMUNI1 ZMUNI8_PCT 1007.2708   
    QMUNI1 ZMUNI9_PCT 0.1908000002
    QMUNI2 OBJROW 1.          
    QMUNI2 ZMUNI1_PCT 1438.1408   
    QMUNI2 ZMUNI2_PCT 34522.8195  
    QMUNI2 ZMUNI3_PCT 2201.0803   
    QMUNI2 ZMUNI4_PCT 2174.3774   
    QMUNI2 ZMUNI5_PCT 10.8719     
    QMUNI2 ZMUNI6_PCT 23.8419     
    QMUNI2 ZMUNI7_PCT 378.0365    
    QMUNI2 ZMUNI8_PCT 526.4282    
    QMUNI2 ZMUNI9_PCT 246.048     
    QMUNI3 OBJROW 1.          
    QMUNI3 ZMUNI1_PCT 4112.4344   
    QMUNI3 ZMUNI2_PCT 2394.6762   
    QMUNI3 ZMUNI3_PCT 30982.0175  
    QMUNI3 ZMUNI4_PCT 4511.5471   
    QMUNI3 ZMUNI5_PCT 227.7374    
    QMUNI3 ZMUNI6_PCT 308.9905    
    QMUNI3 ZMUNI7_PCT 1100.1587   
    QMUNI3 ZMUNI8_PCT 942.0395    
    QMUNI3 ZMUNI9_PCT 74.7681     
    QMUNI4 OBJROW 1.          
    QMUNI4 ZMUNI1_PCT 3465.0802   
    QMUNI4 ZMUNI2_PCT 2999.3057   
    QMUNI4 ZMUNI3_PCT 5562.0194   
    QMUNI4 ZMUNI4_PCT 97497.3679  
    QMUNI4 ZMUNI5_PCT 601.5778    
    QMUNI4 ZMUNI6_PCT 675.2014    
    QMUNI4 ZMUNI7_PCT 1247.406    
    QMUNI4 ZMUNI8_PCT 1137.9242   
    QMUNI4 ZMUNI9_PCT 468.0634    
    QMUNI5 OBJROW 1.          
    QMUNI5 ZMUNI1_PCT  -74.1959   
    QMUNI5 ZMUNI2_PCT  -273.7046  
    QMUNI5 ZMUNI3_PCT  -165.3671  
    QMUNI5 ZMUNI4_PCT  -163.0783  
    QMUNI5 ZMUNI5_PCT 34506.7978  
    QMUNI5 ZMUNI6_PCT 2800.7507   
    QMUNI5 ZMUNI7_PCT  -131.4163  
    QMUNI5 ZMUNI8_PCT  -374.9848  
    QMUNI5 ZMUNI9_PCT  -654.9835  
    QMUNI6 OBJROW 1.          
    QMUNI6 ZMUNI1_PCT 264.1678    
    QMUNI6 ZMUNI2_PCT  -57.602    
    QMUNI6 ZMUNI3_PCT 134.6588    
    QMUNI6 ZMUNI4_PCT 68.8553     
    QMUNI6 ZMUNI5_PCT 3122.5205   
    QMUNI6 ZMUNI6_PCT 33831.2149  
    QMUNI6 ZMUNI7_PCT 263.977     
    QMUNI6 ZMUNI8_PCT  -120.163   
    QMUNI6 ZMUNI9_PCT  -527.3819  
    QMUNI7 OBJROW 1.          
    QMUNI7 ZMUNI1_PCT 1400.1846   
    QMUNI7 ZMUNI2_PCT 671.3867    
    QMUNI7 ZMUNI3_PCT 1147.0795   
    QMUNI7 ZMUNI4_PCT 742.4355    
    QMUNI7 ZMUNI5_PCT 673.8663    
    QMUNI7 ZMUNI6_PCT 838.2797    
    QMUNI7 ZMUNI7_PCT 28164.6728  
    QMUNI7 ZMUNI8_PCT 2321.6247   
    QMUNI7 ZMUNI9_PCT 595.0928    
    QMUNI8 OBJROW 1.          
    QMUNI8 ZMUNI1_PCT 1296.2341   
    QMUNI8 ZMUNI2_PCT 1040.6494   
    QMUNI8 ZMUNI3_PCT 1263.9999   
    QMUNI8 ZMUNI4_PCT 901.2222    
    QMUNI8 ZMUNI5_PCT 496.2921    
    QMUNI8 ZMUNI6_PCT 572.9675    
    QMUNI8 ZMUNI7_PCT 2407.4554   
    QMUNI8 ZMUNI8_PCT 27544.7845  
    QMUNI8 ZMUNI9_PCT 1259.2316   
    QMUNI9 OBJROW 1.          
    QMUNI9 ZMUNI1_PCT 281.1432    
    QMUNI9 ZMUNI2_PCT 533.2946    
    QMUNI9 ZMUNI3_PCT 342.9413    
    QMUNI9 ZMUNI4_PCT 258.255     
    QMUNI9 ZMUNI5_PCT 224.3042    
    QMUNI9 ZMUNI6_PCT 198.1735    
    QMUNI9 ZMUNI7_PCT 230.217     
    QMUNI9 ZMUNI8_PCT 647.7356    
    QMUNI9 ZMUNI9_PCT 25578.6896  
RHS
    RHS ZMUNI1_PCT 11.023897841
    RHS ZMUNI2_PCT 4.1423103491
    RHS ZMUNI3_PCT 5.4780373844
    RHS ZMUNI4_PCT  -21.4178334
    RHS ZMUNI5_PCT  -0.60724744
    RHS ZMUNI6_PCT 4.3291245919
    RHS ZMUNI7_PCT  -5.3470961 
    RHS ZMUNI8_PCT  -2.51402013
    RHS ZMUNI9_PCT  -1.46732018
BOUNDS
 LO BOUND QMUNI1 -0.0005     
 UP BOUND QMUNI1      1.1e+10
 LO BOUND QMUNI2 -0.0005     
 UP BOUND QMUNI2      1.1e+10
 LO BOUND QMUNI3 -0.0005     
 UP BOUND QMUNI3      1.1e+10
 LO BOUND QMUNI4 -0.0005     
 UP BOUND QMUNI4      1.1e+10
 LO BOUND QMUNI5 -0.0005     
 UP BOUND QMUNI5      1.1e+10
 LO BOUND QMUNI6 -0.0005     
 UP BOUND QMUNI6      1.1e+10
 LO BOUND QMUNI7 -0.0005     
 UP BOUND QMUNI7      1.1e+10
 LO BOUND QMUNI8 -0.0005     
 UP BOUND QMUNI8      1.1e+10
 LO BOUND QMUNI9 -0.0005     
 UP BOUND QMUNI9      1.1e+10
ENDATA
